CMPL model generation - running

CMPL version: 1.11.0
Authors: Thomas Schleiff, Mike Steglich
Distributed under the GPLv3 

create model instance ...
write model instance ...
CMPL model generation - finished

Solver - running


Welcome to IBM(R) ILOG(R) CPLEX(R) Interactive Optimizer 12.7.1.0
  with Simplex, Mixed Integer & Barrier Optimizers
5725-A06 5725-A29 5724-Y48 5724-Y49 5724-Y54 5724-Y55 5655-Y21
Copyright IBM Corp. 1988, 2017.  All Rights Reserved.

Type 'help' for a list of available commands.
Type 'help' followed by a command name for more
information on commands.

CPLEX> Specified objective sense: MINIMIZE
Selected objective  name:  line[1]
Selected RHS        name:  RHS
Selected bound      name:  BOUND
Problem '/tmp/cmpl.T24326.mps' read.
Read time = 0.06 sec. (10.13 ticks)
CPLEX> CPXPARAM_Read_APIEncoding                        "UTF-8"
Tried aggregator 3 times.
MIP Presolve eliminated 23937 rows and 37450 columns.
MIP Presolve modified 425 coefficients.
Aggregator did 808 substitutions.
Reduced MIP has 3177 rows, 4197 columns, and 12407 nonzeros.
Reduced MIP has 3987 binaries, 0 generals, 0 SOSs, and 0 indicators.
Presolve time = 0.08 sec. (50.41 ticks)
Found incumbent of value 1257.745419 after 0.14 sec. (90.48 ticks)
Probing fixed 14 vars, tightened 0 bounds.
Probing time = 0.02 sec. (5.47 ticks)
Tried aggregator 1 time.
MIP Presolve eliminated 0 rows and 14 columns.
MIP Presolve modified 78 coefficients.
Reduced MIP has 3177 rows, 4183 columns, and 12379 nonzeros.
Reduced MIP has 4183 binaries, 0 generals, 0 SOSs, and 0 indicators.
Presolve time = 0.01 sec. (10.43 ticks)
Probing time = 0.01 sec. (2.86 ticks)
Clique table members: 7639.
MIP emphasis: balance optimality and feasibility.
MIP search method: dynamic search.
Parallel mode: none, using 1 thread.
Root relaxation solution time = 0.01 sec. (7.49 ticks)

        Nodes                                         Cuts/
   Node  Left     Objective  IInf  Best Integer    Best Bound    ItCnt     Gap

*     0+    0                         1257.7454      -12.0277           100.96%
      0     0      323.7169     1     1257.7454      323.7169      274   74.26%
*     0+    0                          323.7803      323.7169             0.02%
*     0+    0                          323.7397      323.7169             0.01%
      0     0        cutoff            323.7397      323.7169      274    0.01%
Elapsed time = 0.21 sec. (132.91 ticks, tree = 0.01 MB, solutions = 3)

Root node processing (before b&c):
  Real time             =    0.21 sec. (134.73 ticks)
Sequential b&c:
  Real time             =    0.00 sec. (0.00 ticks)
                          ------------
Total (root+branch&cut) =    0.21 sec. (134.73 ticks)

Solution pool: 3 solutions saved.

MIP - Integer optimal solution:  Objective =  3.2373972000e+02
Solution time =    0.21 sec.  Iterations = 274  Nodes = 0
Deterministic time = 134.85 ticks  (632.40 ticks/sec)

CPLEX> Incumbent solution written to file '/tmp/cmpl.T24326.gsol'.
CPLEX> 
CMPL: Time used for model generation: 1 seconds
CMPL: Time used for solving the model: 1 seconds


Solution written to ASCII file: results/output_generated_conf_0.6/2016-12-05-5/fair-nonlinear.sol

Solver - finished
